sudoku = array2d(1..9, 1..9,[
  9,8,<>, 6,4,<>, 3,2,<>,
  7,4,6, <>,8,<>, 1,9,5
  2,<>,1, 5,<>,<>, 6,<>,<>,

  <>,<>,<>, 7,<>,8, <>,<>,<>,
  <>,1,8, 4,5,9, <>,<>,2,
  4,7,4, 1,<>,<>, 8,5,<>,

  8,5,<>, 9,1,<>, <>,7,<>,
  1,2,<>, 3,6,5, 9,8,4,
  4,<>,9, 8,<>,<>, 5,1,3
]);